n = 100;
C = 25523;
w = [415,700,117,947,840,451,203,280,944,395,103,358,356,641,877,165,422,956,897,780,170,182,474,59,638,428,456,650,582,44,82,872,590,847,259,862,537,135,221,829,354,427,110,965,106,385,755,792,729,851,274,462,296,701,164,602,438,349,163,268,729,476,576,521,431,717,665,976,718,43,929,374,905,48,256,893,988,763,564,880,706,713,592,106,556,47,908,448,701,519,205,180,412,802,630,467,610,341,55,641];
p = [415,700,117,947,840,451,203,280,944,395,103,358,356,641,877,165,422,956,897,780,170,182,474,59,638,428,456,650,582,44,82,872,590,847,259,862,537,135,221,829,354,427,110,965,106,385,755,792,729,851,274,462,296,701,164,602,438,349,163,268,729,476,576,521,431,717,665,976,718,43,929,374,905,48,256,893,988,763,564,880,706,713,592,106,556,47,908,448,701,519,205,180,412,802,630,467,610,341,55,641];
